NAME: custom33
TYPE: TSP
COMMENT: 
DIMENSION: 33
NODE_COORD_SECTION
1 5340000 5350000
2 6760000 4030000
3 7730000 3250000
4 8670000 2510000
5 9530000 3240000
6 10570000 2480000
7 10560000 3300000
8 10550000 4240000
9 8670000 5590000
10 8730000 4130000
11 6900000 2480000
12 2227673 0427290
13 1942492 0188199
14 1516162 0703829
15 0989010 1061025
16 0640039 1095592
17 1366370 1222339
18 1351967 1833029
19 1559371 1838790
20 1882000 2086523
21 1625625 3362634
22 1533445 3109261
23 1349086 3351112
24 0767203 3595964
25 1363489 4209534
26 1611222 3944518
27 2172941 3421889
28 2101419 3644934
29 2193106 3812010
30 2403390 3961802
31 2420674 5099643
32 0188200 4684835
EOF